(set-logic QF_S)
(declare-fun var0 () String)
(declare-fun var1 () String)
(declare-fun var2 () String)
(declare-fun var3 () String)
(declare-fun var4 () String)
(declare-fun var5 () String)
(declare-fun var6 () String)
(declare-fun var7 () String)
(declare-fun var8 () String)
(declare-fun var9 () String)
(declare-fun var10 () String)
(declare-fun var11 () String)
(declare-fun var12 () String)
(declare-fun var13 () String)
(declare-fun var14 () String)
(declare-fun var15 () String)
(declare-fun var16 () String)
(declare-fun var17 () String)
(declare-fun var18 () String)
(declare-fun var19 () String)
(declare-fun var20 () String)
(declare-fun var21 () String)
(declare-fun var22 () String)
(declare-fun var23 () String)
(declare-fun var24 () String)
(declare-fun var25 () String)
(declare-fun var26 () String)
(declare-fun var27 () String)
(declare-fun var28 () String)
(declare-fun var29 () String)
(declare-fun var30 () String)
(declare-fun var31 () String)
(declare-fun var32 () String)
(declare-fun var33 () String)
(declare-fun var34 () String)
(declare-fun var35 () String)
(declare-fun var36 () String)
(declare-fun var37 () String)
(declare-fun var38 () String)
(declare-fun var39 () String)
(declare-fun var40 () String)
(declare-fun var41 () String)
(declare-fun var42 () String)
(declare-fun var43 () String)
(declare-fun var44 () String)
(declare-fun var45 () String)
(declare-fun var46 () String)
(declare-fun var47 () String)
(declare-fun var48 () String)
(declare-fun var49 () String)
(declare-fun var50 () String)
(declare-fun var51 () String)
(declare-fun var52 () String)
(declare-fun var53 () String)
(declare-fun var54 () String)
(declare-fun var55 () String)
(declare-fun var56 () String)
(declare-fun var57 () String)
(declare-fun var58 () String)
(declare-fun var59 () String)
(declare-fun var60 () String)
(assert (= var0 (Concat var1 var2)))
(assert (= var2 (Concat var3 var4)))
(assert (= var4 (Concat var5 var6)))
(assert (= var6 (Concat var7 var8)))
(assert (= var8 (Concat var9 var10)))
(assert (= var10 (Concat var11 var12)))
(assert (= var12 (Concat var13 var14)))
(assert (= var14 (Concat var15 var16)))
(assert (= var16 (Concat var17 var18)))
(assert (= var18 (Concat var19 var20)))
(assert (= var20 (Concat var21 var22)))
(assert (= var22 (Concat var23 var24)))
(assert (= var24 (Concat var25 var26)))
(assert (= var26 (Concat var27 var28)))
(assert (= var28 (Concat var29 var30)))
(assert (= var30 (Concat var31 var32)))
(assert (= var32 (Concat var33 var34)))
(assert (= var34 (Concat var35 var36)))
(assert (= var36 (Concat var37 var38)))
(assert (= var38 (Concat var39 var40)))
(assert (= var40 (Concat var41 var42)))
(assert (= var42 (Concat var43 var44)))
(assert (= var44 (Concat var45 var46)))
(assert (= var46 (Concat var47 var48)))
(assert (= var48 (Concat var49 var50)))
(assert (= var50 (Concat var51 var52)))
(assert (= var52 (Concat var53 var54)))
(assert (= var54 (Concat var55 var56)))
(assert (= var56 (Concat var57 var58)))
(assert (= var58 (Concat var59 var60)))
(assert (= var0 "solution"))
(assert (= "," (CharAt var50 247)))
(assert (= "M" (CharAt var53 231)))
(assert (= "`" (CharAt var53 431)))
(assert (= "a" (CharAt var6 369)))
(assert (= "'" (CharAt var12 167)))
(assert (= "B" (CharAt var52 531)))
(assert (= "`" (CharAt var7 802)))
(assert (= "v" (CharAt var39 215)))
(assert (= "K" (CharAt var36 379)))
(assert (= "W" (CharAt var5 282)))
(assert (= "h" (CharAt var45 480)))
(assert (= "~" (CharAt var40 398)))
(assert (= "P" (CharAt var51 26)))
(assert (= "?" (CharAt var10 597)))
(assert (= "R" (CharAt var31 432)))
(assert (= "g" (CharAt var52 826)))
(assert (= "p" (CharAt var21 211)))
(assert (= "X" (CharAt var28 730)))
(assert (= "m" (CharAt var17 447)))
(assert (= "[" (CharAt var42 190)))
(assert (= "s" (CharAt var0 268)))
(assert (= "L" (CharAt var2 702)))
(assert (= "v" (CharAt var7 296)))
(assert (= "W" (CharAt var58 798)))
(assert (= ")" (CharAt var33 911)))
(assert (= "m" (CharAt var19 33)))
(assert (= "#" (CharAt var27 133)))
(assert (= "R" (CharAt var54 221)))
(assert (= "%" (CharAt var53 601)))
(assert (= "." (CharAt var60 366)))
(assert (= "O" (CharAt var52 323)))
(assert (= "P" (CharAt var27 437)))
(assert (= "W" (CharAt var13 493)))
(assert (= "V" (CharAt var23 148)))
(assert (= "S" (CharAt var30 24)))
(assert (= "c" (CharAt var48 610)))
(assert (= "H" (CharAt var35 832)))
(assert (= "&" (CharAt var32 178)))
(assert (= "t" (CharAt var15 75)))
(assert (= "c" (CharAt var41 804)))
(assert (= "{" (CharAt var4 799)))
(assert (= "s" (CharAt var29 315)))
(assert (= "D" (CharAt var53 922)))
(assert (= "g" (CharAt var54 593)))
(assert (= "1" (CharAt var1 165)))
(assert (= "3" (CharAt var10 195)))
(assert (= "O" (CharAt var20 355)))
(assert (= "O" (CharAt var36 454)))
(assert (= "F" (CharAt var2 957)))
(assert (= "u" (CharAt var60 451)))
(assert (= "H" (CharAt var42 279)))
(assert (= "@" (CharAt var46 578)))
(assert (= "," (CharAt var3 560)))
(assert (= "e" (CharAt var52 516)))
(assert (= "3" (CharAt var18 303)))
(assert (= "s" (CharAt var4 803)))
(assert (= "D" (CharAt var15 230)))
(assert (= "O" (CharAt var19 150)))
(assert (= ";" (CharAt var54 618)))
(assert (= "c" (CharAt var23 220)))
(assert (= "." (CharAt var31 828)))
(assert (= "+" (CharAt var0 302)))
(assert (= "o" (CharAt var9 114)))
(assert (= "R" (CharAt var9 153)))
(assert (= ";" (CharAt var39 269)))
(assert (= "5" (CharAt var2 849)))
(assert (= "p" (CharAt var32 531)))
(assert (= "Y" (CharAt var11 831)))
(assert (= "H" (CharAt var31 852)))
(assert (= "-" (CharAt var39 281)))
(assert (= "*" (CharAt var51 971)))
(assert (= "z" (CharAt var39 589)))
(assert (= "y" (CharAt var25 287)))
(assert (= "C" (CharAt var14 262)))
(assert (= "m" (CharAt var46 807)))
(assert (= "~" (CharAt var18 840)))
(assert (= "%" (CharAt var15 235)))
(assert (= "t" (CharAt var7 785)))
(assert (= "*" (CharAt var2 426)))
(assert (= "`" (CharAt var42 763)))
(assert (= "2" (CharAt var5 459)))
(assert (= "e" (CharAt var19 133)))
(assert (= "$" (CharAt var37 37)))
(assert (= "G" (CharAt var59 316)))
(assert (= "y" (CharAt var44 402)))
(assert (= "9" (CharAt var9 29)))
(assert (= "7" (CharAt var22 211)))
(assert (= "B" (CharAt var40 684)))
(assert (= "+" (CharAt var55 543)))
(assert (= "(" (CharAt var34 376)))
(assert (= "`" (CharAt var39 47)))
(assert (= "m" (CharAt var21 875)))
(assert (= "3" (CharAt var16 733)))
(assert (= "N" (CharAt var45 851)))
(assert (= "P" (CharAt var26 60)))
(assert (= "L" (CharAt var25 774)))
(assert (= "\\" (CharAt var59 962)))
(assert (= "O" (CharAt var54 393)))
(assert (= "{" (CharAt var30 570)))
(assert (= "~" (CharAt var39 825)))
(assert (= "%" (CharAt var56 620)))
(assert (= "{" (CharAt var41 277)))
(assert (= "Y" (CharAt var18 428)))
(assert (= "7" (CharAt var19 816)))
(assert (= ";" (CharAt var16 659)))
(assert (= "}" (CharAt var34 405)))
(assert (= "[" (CharAt var50 951)))
(assert (= ">" (CharAt var3 409)))
(assert (= "r" (CharAt var40 771)))
(assert (= "A" (CharAt var52 867)))
(assert (= "7" (CharAt var21 769)))
(assert (= "e" (CharAt var47 121)))
(assert (= "Q" (CharAt var7 727)))
(assert (= "p" (CharAt var35 294)))
(assert (= "!" (CharAt var28 603)))
(assert (= "\"" (CharAt var49 243)))
(assert (= "/" (CharAt var4 383)))
(assert (= "x" (CharAt var14 685)))
(assert (= "r" (CharAt var27 187)))
(assert (= "e" (CharAt var44 431)))
(assert (= "e" (CharAt var43 440)))
(assert (= "B" (CharAt var21 38)))
(assert (= "'" (CharAt var11 911)))
(assert (= "u" (CharAt var37 489)))
(assert (= "]" (CharAt var38 626)))
(assert (= "d" (CharAt var44 30)))
(assert (= "!" (CharAt var4 351)))
(assert (= "^" (CharAt var13 376)))
(assert (= "?" (CharAt var31 224)))
(assert (= "g" (CharAt var52 637)))
(assert (= "~" (CharAt var51 22)))
(assert (= "2" (CharAt var28 830)))
(assert (= "1" (CharAt var27 936)))
(assert (= "Q" (CharAt var30 690)))
(assert (= ";" (CharAt var20 188)))
(assert (= "|" (CharAt var19 201)))
(assert (= "p" (CharAt var55 503)))
(assert (= "2" (CharAt var39 496)))
(assert (= "m" (CharAt var5 526)))
(assert (= "," (CharAt var14 622)))
(assert (= "&" (CharAt var45 67)))
(assert (= "U" (CharAt var31 53)))
(assert (= "P" (CharAt var24 155)))
(assert (= "t" (CharAt var42 931)))
(assert (= "W" (CharAt var16 876)))
(assert (= "\"" (CharAt var14 264)))
(assert (= "K" (CharAt var55 588)))
(assert (= "G" (CharAt var21 568)))
(assert (= "M" (CharAt var25 810)))
(assert (= "_" (CharAt var53 503)))
(assert (= "~" (CharAt var19 856)))
(assert (= "C" (CharAt var17 835)))
(assert (= "s" (CharAt var24 90)))
(assert (= "e" (CharAt var10 662)))
(assert (= "'" (CharAt var1 328)))
(assert (= "n" (CharAt var29 56)))
(assert (= "H" (CharAt var20 758)))
(assert (= "e" (CharAt var32 481)))
(assert (= "Z" (CharAt var19 803)))
(assert (= "g" (CharAt var29 258)))
(assert (= "Q" (CharAt var25 678)))
(assert (= "9" (CharAt var47 843)))
(assert (= "\\" (CharAt var11 350)))
(assert (= "Z" (CharAt var24 352)))
(assert (= "N" (CharAt var51 586)))
(assert (= "7" (CharAt var56 578)))
(assert (= "s" (CharAt var35 80)))
(assert (= "k" (CharAt var39 946)))
(assert (= "B" (CharAt var10 156)))
(assert (= "&" (CharAt var13 7)))
(assert (= "p" (CharAt var5 321)))
(assert (= ":" (CharAt var14 954)))
(assert (= "E" (CharAt var55 366)))
(assert (= "9" (CharAt var56 18)))
(assert (= "?" (CharAt var13 641)))
(assert (= "Q" (CharAt var10 352)))
(assert (= "u" (CharAt var2 277)))
(assert (= "t" (CharAt var21 762)))
(assert (= "}" (CharAt var47 345)))
(assert (= "$" (CharAt var48 638)))
(assert (= "," (CharAt var25 575)))
(assert (= "C" (CharAt var53 952)))
(assert (= "/" (CharAt var25 420)))
(assert (= "Z" (CharAt var39 888)))
(assert (= "l" (CharAt var28 700)))
(assert (= "<" (CharAt var51 745)))
(assert (= "[" (CharAt var33 260)))
(assert (= "Q" (CharAt var30 936)))
(assert (= "_" (CharAt var29 785)))
(assert (= "g" (CharAt var0 18)))
(assert (= "F" (CharAt var48 807)))
(assert (= "U" (CharAt var20 552)))
(assert (= "f" (CharAt var8 137)))
(assert (= "{" (CharAt var24 744)))
(assert (= "~" (CharAt var6 445)))
(assert (= "y" (CharAt var13 763)))
(assert (= "n" (CharAt var16 266)))
(assert (= "P" (CharAt var34 835)))
(assert (= "7" (CharAt var39 122)))
(assert (= "A" (CharAt var8 78)))
(assert (= "C" (CharAt var20 611)))
(assert (= "F" (CharAt var59 68)))
(assert (= "j" (CharAt var4 929)))
(assert (= "@" (CharAt var56 238)))
(assert (= "#" (CharAt var27 643)))
(assert (= "_" (CharAt var54 786)))
(assert (= "D" (CharAt var48 119)))
(assert (= "$" (CharAt var46 775)))
(assert (= "A" (CharAt var41 141)))
(assert (= "a" (CharAt var10 827)))
(assert (= "F" (CharAt var45 93)))
(assert (= "2" (CharAt var50 913)))
(assert (= ">" (CharAt var53 801)))
(assert (= "W" (CharAt var52 797)))
(assert (= "B" (CharAt var43 872)))
(assert (= "-" (CharAt var32 143)))
(assert (= "J" (CharAt var25 104)))
(assert (= "}" (CharAt var36 59)))
(assert (= "3" (CharAt var0 369)))
(assert (= "t" (CharAt var24 326)))
(assert (= "e" (CharAt var42 444)))
(assert (= "F" (CharAt var60 869)))
(assert (= "y" (CharAt var18 495)))
(assert (= "B" (CharAt var11 796)))
(assert (= "/" (CharAt var20 459)))
(assert (= "Y" (CharAt var35 882)))
(assert (= "{" (CharAt var15 83)))
(assert (= "w" (CharAt var48 602)))
(assert (= "-" (CharAt var46 417)))
(assert (= "p" (CharAt var0 851)))
(assert (= "5" (CharAt var25 253)))
(assert (= "W" (CharAt var50 291)))
(assert (= "q" (CharAt var31 220)))
(assert (= "D" (CharAt var43 591)))
(assert (= "`" (CharAt var5 484)))
(assert (= "]" (CharAt var13 405)))
(assert (= "&" (CharAt var60 145)))
(assert (= "2" (CharAt var14 734)))
(assert (= "P" (CharAt var11 566)))
(assert (= "*" (CharAt var5 906)))
(assert (= "t" (CharAt var6 229)))
(assert (= "r" (CharAt var14 19)))
(assert (= "2" (CharAt var50 19)))
(assert (= "9" (CharAt var28 891)))
(assert (= "j" (CharAt var52 424)))
(assert (= "N" (CharAt var1 239)))
(assert (= "z" (CharAt var6 898)))
(assert (= "{" (CharAt var56 783)))
(assert (= "D" (CharAt var2 517)))
(assert (= "Q" (CharAt var6 383)))
(assert (= "H" (CharAt var33 59)))
(assert (= "y" (CharAt var8 996)))
(assert (= "Z" (CharAt var2 447)))
(assert (= "_" (CharAt var22 820)))
(assert (= "e" (CharAt var56 646)))
(assert (= "#" (CharAt var17 249)))
(assert (= "v" (CharAt var22 268)))
(assert (= "}" (CharAt var19 89)))
(assert (= "J" (CharAt var26 872)))
(assert (= "*" (CharAt var16 705)))
(assert (= "l" (CharAt var47 693)))
(assert (= "&" (CharAt var45 349)))
(assert (= "." (CharAt var28 510)))
(assert (= "q" (CharAt var56 855)))
(assert (= "b" (CharAt var18 817)))
(assert (= "J" (CharAt var25 595)))
(assert (= "'" (CharAt var23 130)))
(assert (= "\\" (CharAt var43 398)))
(assert (= "6" (CharAt var20 818)))
(assert (= "I" (CharAt var24 837)))
(assert (= "q" (CharAt var29 303)))
(assert (= "C" (CharAt var15 894)))
(assert (= "l" (CharAt var30 182)))
(assert (= "'" (CharAt var9 498)))
(assert (= "j" (CharAt var47 603)))
(assert (= "N" (CharAt var10 870)))
(assert (= "P" (CharAt var38 182)))
(assert (= "q" (CharAt var7 790)))
(assert (= "6" (CharAt var21 231)))
(assert (= ":" (CharAt var29 514)))
(assert (= "G" (CharAt var20 9)))
(check-sat)